GLPSOL--GLPK LP/MIP Solver 5.0
Parameter(s) specified in the command line:
 --lp ../modeles/3_499.lp --log 3_499.log
Reading problem data from '../modeles/3_499.lp'...
1510 rows, 3000 columns, 10494 non-zeros
1497 integer variables, all of which are binary
4519 lines were read
GLPK Integer Optimizer 5.0
1510 rows, 3000 columns, 10494 non-zeros
1497 integer variables, all of which are binary
Preprocessing...
1482 constraint coefficient(s) were reduced
1510 rows, 2997 columns, 10491 non-zeros
1497 integer variables, all of which are binary
Scaling...
 A: min|aij| =  1.606e-05  max|aij| =  4.000e+00  ratio =  2.490e+05
GM: min|aij| =  4.477e-02  max|aij| =  2.234e+01  ratio =  4.990e+02
EQ: min|aij| =  2.004e-03  max|aij| =  1.000e+00  ratio =  4.990e+02
2N: min|aij| =  1.953e-03  max|aij| =  1.771e+00  ratio =  9.066e+02
Constructing initial basis...
Size of triangular part is 1510
Solving LP relaxation...
GLPK Simplex Optimizer 5.0
1510 rows, 2997 columns, 10491 non-zeros
      0: obj =   6.000000000e+00 inf =   1.450e+01 (7)
     80: obj =   4.999779116e-01 inf =   0.000e+00 (0)
*   259: obj =  -1.732009157e+00 inf =   4.381e-16 (0)
OPTIMAL LP SOLUTION FOUND
Integer optimization begins...
Long-step dual simplex will be used
+   259: mip =     not found yet >=              -inf        (1; 0)
+   264: >>>>>  -1.732009157e+00 >=  -1.732009157e+00 < 0.1% (4; 0)
+   264: mip =  -1.732009157e+00 >=     tree is empty   0.0% (0; 7)
INTEGER OPTIMAL SOLUTION FOUND
Time used:   0.0 secs
Memory used: 4.2 Mb (4413231 bytes)
